c File: flat50_3_0.col
c
c SOURCE: Joseph Culberson (joe@cs.ualberta.ca)
c DESCRIPTION: Quasi-random coloring problem
c              generated with flatness = 0
c                             probability = 0.139
c                             known coloring = 3
c                             random seed = 1101
c              Creation Date:  Tue Jun  9 12:01:09 1998
c Maximum degree = 8 Minimum degree = 1
c p edge 50 115
c cnf created by edge2cnf
p cnf 150 545
-1 -2 0
-1 -3 0
-2 -3 0
1 2 3 0
-4 -5 0
-4 -6 0
-5 -6 0
4 5 6 0
-7 -8 0
-7 -9 0
-8 -9 0
7 8 9 0
-10 -11 0
-10 -12 0
-11 -12 0
10 11 12 0
-13 -14 0
-13 -15 0
-14 -15 0
13 14 15 0
-16 -17 0
-16 -18 0
-17 -18 0
16 17 18 0
-19 -20 0
-19 -21 0
-20 -21 0
19 20 21 0
-22 -23 0
-22 -24 0
-23 -24 0
22 23 24 0
-25 -26 0
-25 -27 0
-26 -27 0
25 26 27 0
-28 -29 0
-28 -30 0
-29 -30 0
28 29 30 0
-31 -32 0
-31 -33 0
-32 -33 0
31 32 33 0
-34 -35 0
-34 -36 0
-35 -36 0
34 35 36 0
-37 -38 0
-37 -39 0
-38 -39 0
37 38 39 0
-40 -41 0
-40 -42 0
-41 -42 0
40 41 42 0
-43 -44 0
-43 -45 0
-44 -45 0
43 44 45 0
-46 -47 0
-46 -48 0
-47 -48 0
46 47 48 0
-49 -50 0
-49 -51 0
-50 -51 0
49 50 51 0
-52 -53 0
-52 -54 0
-53 -54 0
52 53 54 0
-55 -56 0
-55 -57 0
-56 -57 0
55 56 57 0
-58 -59 0
-58 -60 0
-59 -60 0
58 59 60 0
-61 -62 0
-61 -63 0
-62 -63 0
61 62 63 0
-64 -65 0
-64 -66 0
-65 -66 0
64 65 66 0
-67 -68 0
-67 -69 0
-68 -69 0
67 68 69 0
-70 -71 0
-70 -72 0
-71 -72 0
70 71 72 0
-73 -74 0
-73 -75 0
-74 -75 0
73 74 75 0
-76 -77 0
-76 -78 0
-77 -78 0
76 77 78 0
-79 -80 0
-79 -81 0
-80 -81 0
79 80 81 0
-82 -83 0
-82 -84 0
-83 -84 0
82 83 84 0
-85 -86 0
-85 -87 0
-86 -87 0
85 86 87 0
-88 -89 0
-88 -90 0
-89 -90 0
88 89 90 0
-91 -92 0
-91 -93 0
-92 -93 0
91 92 93 0
-94 -95 0
-94 -96 0
-95 -96 0
94 95 96 0
-97 -98 0
-97 -99 0
-98 -99 0
97 98 99 0
-100 -101 0
-100 -102 0
-101 -102 0
100 101 102 0
-103 -104 0
-103 -105 0
-104 -105 0
103 104 105 0
-106 -107 0
-106 -108 0
-107 -108 0
106 107 108 0
-109 -110 0
-109 -111 0
-110 -111 0
109 110 111 0
-112 -113 0
-112 -114 0
-113 -114 0
112 113 114 0
-115 -116 0
-115 -117 0
-116 -117 0
115 116 117 0
-118 -119 0
-118 -120 0
-119 -120 0
118 119 120 0
-121 -122 0
-121 -123 0
-122 -123 0
121 122 123 0
-124 -125 0
-124 -126 0
-125 -126 0
124 125 126 0
-127 -128 0
-127 -129 0
-128 -129 0
127 128 129 0
-130 -131 0
-130 -132 0
-131 -132 0
130 131 132 0
-133 -134 0
-133 -135 0
-134 -135 0
133 134 135 0
-136 -137 0
-136 -138 0
-137 -138 0
136 137 138 0
-139 -140 0
-139 -141 0
-140 -141 0
139 140 141 0
-142 -143 0
-142 -144 0
-143 -144 0
142 143 144 0
-145 -146 0
-145 -147 0
-146 -147 0
145 146 147 0
-148 -149 0
-148 -150 0
-149 -150 0
148 149 150 0
-52 -1 0
-53 -2 0
-54 -3 0
-79 -1 0
-80 -2 0
-81 -3 0
-100 -1 0
-101 -2 0
-102 -3 0
-52 -4 0
-53 -5 0
-54 -6 0
-76 -4 0
-77 -5 0
-78 -6 0
-91 -4 0
-92 -5 0
-93 -6 0
-112 -4 0
-113 -5 0
-114 -6 0
-121 -4 0
-122 -5 0
-123 -6 0
-124 -4 0
-125 -5 0
-126 -6 0
-133 -4 0
-134 -5 0
-135 -6 0
-70 -7 0
-71 -8 0
-72 -9 0
-145 -7 0
-146 -8 0
-147 -9 0
-94 -10 0
-95 -11 0
-96 -12 0
-103 -10 0
-104 -11 0
-105 -12 0
-106 -10 0
-107 -11 0
-108 -12 0
-127 -10 0
-128 -11 0
-129 -12 0
-148 -10 0
-149 -11 0
-150 -12 0
-55 -13 0
-56 -14 0
-57 -15 0
-64 -13 0
-65 -14 0
-66 -15 0
-100 -13 0
-101 -14 0
-102 -15 0
-127 -13 0
-128 -14 0
-129 -15 0
-139 -13 0
-140 -14 0
-141 -15 0
-145 -13 0
-146 -14 0
-147 -15 0
-64 -16 0
-65 -17 0
-66 -18 0
-79 -16 0
-80 -17 0
-81 -18 0
-115 -16 0
-116 -17 0
-117 -18 0
-130 -16 0
-131 -17 0
-132 -18 0
-73 -19 0
-74 -20 0
-75 -21 0
-121 -19 0
-122 -20 0
-123 -21 0
-127 -19 0
-128 -20 0
-129 -21 0
-139 -19 0
-140 -20 0
-141 -21 0
-64 -22 0
-65 -23 0
-66 -24 0
-76 -22 0
-77 -23 0
-78 -24 0
-85 -22 0
-86 -23 0
-87 -24 0
-97 -22 0
-98 -23 0
-99 -24 0
-109 -22 0
-110 -23 0
-111 -24 0
-124 -22 0
-125 -23 0
-126 -24 0
-148 -22 0
-149 -23 0
-150 -24 0
-55 -25 0
-56 -26 0
-57 -27 0
-58 -25 0
-59 -26 0
-60 -27 0
-64 -25 0
-65 -26 0
-66 -27 0
-52 -28 0
-53 -29 0
-54 -30 0
-76 -28 0
-77 -29 0
-78 -30 0
-82 -28 0
-83 -29 0
-84 -30 0
-91 -28 0
-92 -29 0
-93 -30 0
-106 -28 0
-107 -29 0
-108 -30 0
-118 -28 0
-119 -29 0
-120 -30 0
-139 -28 0
-140 -29 0
-141 -30 0
-148 -28 0
-149 -29 0
-150 -30 0
-76 -31 0
-77 -32 0
-78 -33 0
-82 -31 0
-83 -32 0
-84 -33 0
-88 -31 0
-89 -32 0
-90 -33 0
-91 -31 0
-92 -32 0
-93 -33 0
-130 -31 0
-131 -32 0
-132 -33 0
-136 -31 0
-137 -32 0
-138 -33 0
-142 -31 0
-143 -32 0
-144 -33 0
-79 -34 0
-80 -35 0
-81 -36 0
-82 -34 0
-83 -35 0
-84 -36 0
-133 -34 0
-134 -35 0
-135 -36 0
-142 -34 0
-143 -35 0
-144 -36 0
-145 -34 0
-146 -35 0
-147 -36 0
-88 -37 0
-89 -38 0
-90 -39 0
-94 -37 0
-95 -38 0
-96 -39 0
-103 -37 0
-104 -38 0
-105 -39 0
-112 -37 0
-113 -38 0
-114 -39 0
-97 -40 0
-98 -41 0
-99 -42 0
-133 -40 0
-134 -41 0
-135 -42 0
-145 -40 0
-146 -41 0
-147 -42 0
-52 -43 0
-53 -44 0
-54 -45 0
-55 -43 0
-56 -44 0
-57 -45 0
-91 -43 0
-92 -44 0
-93 -45 0
-73 -46 0
-74 -47 0
-75 -48 0
-100 -46 0
-101 -47 0
-102 -48 0
-109 -46 0
-110 -47 0
-111 -48 0
-124 -46 0
-125 -47 0
-126 -48 0
-127 -46 0
-128 -47 0
-129 -48 0
-133 -46 0
-134 -47 0
-135 -48 0
-61 -49 0
-62 -50 0
-63 -51 0
-109 -55 0
-110 -56 0
-111 -57 0
-121 -55 0
-122 -56 0
-123 -57 0
-121 -58 0
-122 -59 0
-123 -60 0
-130 -58 0
-131 -59 0
-132 -60 0
-136 -61 0
-137 -62 0
-138 -63 0
-109 -64 0
-110 -65 0
-111 -66 0
-127 -64 0
-128 -65 0
-129 -66 0
-133 -64 0
-134 -65 0
-135 -66 0
-139 -64 0
-140 -65 0
-141 -66 0
-115 -67 0
-116 -68 0
-117 -69 0
-139 -67 0
-140 -68 0
-141 -69 0
-118 -70 0
-119 -71 0
-120 -72 0
-103 -73 0
-104 -74 0
-105 -75 0
-115 -73 0
-116 -74 0
-117 -75 0
-139 -73 0
-140 -74 0
-141 -75 0
-103 -76 0
-104 -77 0
-105 -78 0
-115 -76 0
-116 -77 0
-117 -78 0
-133 -76 0
-134 -77 0
-135 -78 0
-121 -79 0
-122 -80 0
-123 -81 0
-127 -79 0
-128 -80 0
-129 -81 0
-136 -79 0
-137 -80 0
-138 -81 0
-118 -82 0
-119 -83 0
-120 -84 0
-121 -82 0
-122 -83 0
-123 -84 0
-139 -82 0
-140 -83 0
-141 -84 0
-118 -85 0
-119 -86 0
-120 -87 0
-124 -85 0
-125 -86 0
-126 -87 0
-127 -85 0
-128 -86 0
-129 -87 0
-145 -85 0
-146 -86 0
-147 -87 0
-127 -88 0
-128 -89 0
-129 -90 0
-130 -88 0
-131 -89 0
-132 -90 0
-112 -94 0
-113 -95 0
-114 -96 0
-133 -94 0
-134 -95 0
-135 -96 0
-112 -97 0
-113 -98 0
-114 -99 0
-106 -100 0
-107 -101 0
-108 -102 0
-118 -100 0
-119 -101 0
-120 -102 0
-124 -100 0
-125 -101 0
-126 -102 0
-133 -100 0
-134 -101 0
-135 -102 0
